
<<< setup


<<< generate

CPXPARAM_TimeLimit                               3600
Found incumbent of value 0,000000 after 1,28 sec. (1124,17 ticks)
Presolve has eliminated 5632474 rows and 6764905 columns...
Presolve has improved bounds 400 times...
Aggregator has done 1 substitutions...
Aggregator has done 3 substitutions...
Aggregator has done 4 substitutions...
Aggregator has done 6 substitutions...
Aggregator has done 7 substitutions...
Aggregator has done 9 substitutions...
Aggregator has done 10 substitutions...
Aggregator has done 12 substitutions...
Aggregator has done 13 substitutions...
Aggregator has done 15 substitutions...
Aggregator has done 16 substitutions...
Aggregator has done 18 substitutions...
Aggregator has done 19 substitutions...
Tried aggregator 20 times.
MIP Presolve eliminated 5632574 rows and 6770310 columns.
Aggregator did 19 substitutions.
Reduced MIP has 77221 rows, 6612171 columns, and 19605252 nonzeros.
Reduced MIP has 6612170 binaries, 1 generals, 0 SOSs, and 0 indicators.
Presolve time = 184,97 sec. (153328,97 ticks)
Presolve has eliminated 0 rows and 0 columns...
Tried aggregator 1 time.
Reduced MIP has 77221 rows, 6612171 columns, and 19605252 nonzeros.
Reduced MIP has 6612170 binaries, 1 generals, 0 SOSs, and 0 indicators.
Presolve time = 39,25 sec. (22970,93 ticks)
Probing time = 22,56 sec. (1237,51 ticks)
Clique table members: 287.
MIP emphasis: balance optimality and feasibility.
MIP search method: dynamic search.
Parallel mode: deterministic, using up to 8 threads.
